c 1 _r
c 2 _r_1
c 3 _r_1_7
c 4 _r_1_7_8
c 5 _r_1_7_8_9_10
c 6 _r_1_7_8_9_11
c 7 _r_1_7_8_9_12
c 8 _r_1_7_13
c 9 _r_1_7_13_14_15
c 10 _r_1_7_13_14_16
c 11 _r_1_7_13_14_17
c 12 _r_1_7_13_14_18
c 13 _r_1_7_13_14_19
c 14 _r_1_7_13_14_20
c 15 _r_1_21
c 16 _r_1_21_22
c 17 _r_1_21_23
c 18 _r_1_24
c 19 _r_1_24_26
c 20 _r_1_24_27
c 21 _r_28
c 22 _r_28_29_30
c 23 _r_28_29_31
c 24 _r_28_29_32
c 25 _r_28_29_33
c 26 _r_28_29_34
c 27 _r_28_29_35
c 28 _r_28_29_36
c 29 _r_28_29_37
c 30 _r_38
c 31 _r_38_39
c 32 _r_38_39_40_41
c 33 _r_38_39_40_42
c 34 _r_38_39_40_43
c 35 _r_38_39_40_44
c 36 _r_38_39_40_45
c 37 _r_38_39_40_46
c 38 _r_38_39_40_47
c 39 _r_38_39_40_48
c 40 _r_38_39_40_49
c 41 _r_38_39_40_50
c 42 _r_38_39_40_52
c 43 _r_38_53
c 44 _r_38_53_54_55
c 45 _r_38_53_54_56
c 46 _r_38_53_54_57
c 47 _r_38_53_54_58
c 48 _r_38_53_54_59
c 49 _r_38_53_54_60
c 50 _r_38_53_54_61
c 51 _r_63
c 52 _r_63_64
c 53 _r_63_64_65
c 54 _r_63_64_66
c 55 _r_63_64_67
c 56 _r_63_64_68
c 57 _r_63_69
c 58 _r_63_69_70
c 59 _r_63_69_71
c 60 _r_63_69_73
c 61 _r_63_74
c 62 _r_63_75
c 63 _r_63_75_76
c 64 _r_77
c 65 _r_77_78
c 66 _r_77_79
c 67 _r_80
c 68 _r_80_81
c 69 _r_80_82
c 70 _r_80_82_83
c 71 _r_80_82_84
p cnf 71 99
1 0
-2 1 0
-1 2 0
-21 1 0
-1 21 0
-30 1 0
-1 30 0
-51 1 0
-1 51 0
-64 1 0
-1 64 0
-67 1 0
-1 67 0
-3 2 0
-15 2 0
-2 15 0
-18 2 0
-22 21 0
-23 21 0
-24 21 0
-25 21 0
-26 21 0
-27 21 0
-28 21 0
-29 21 0
-21 22 23 24 25 26 27 28 29 0
-31 30 0
-30 31 0
-43 30 0
-30 43 0
-52 51 0
-51 52 0
-57 51 0
-51 57 0
-61 51 0
-62 51 0
-65 64 0
-66 64 0
-68 67 0
-69 67 0
-4 3 0
-3 4 0
-8 3 0
-3 8 0
-16 15 0
-15 16 0
-17 15 0
-19 18 0
-20 18 0
-18 20 0
-32 31 0
-33 31 0
-34 31 0
-35 31 0
-36 31 0
-37 31 0
-38 31 0
-39 31 0
-40 31 0
-41 31 0
-42 31 0
-31 32 33 34 35 36 37 38 39 40 41 42 0
-44 43 0
-45 43 0
-46 43 0
-47 43 0
-48 43 0
-49 43 0
-50 43 0
-43 44 45 46 47 48 49 50 0
-53 52 0
-52 53 0
-54 52 0
-52 54 0
-55 52 0
-56 52 0
-58 57 0
-57 58 0
-59 57 0
-57 59 0
-60 57 0
-57 60 0
-63 62 0
-62 63 0
-70 69 0
-69 70 0
-71 69 0
-69 71 0
-5 4 0
-6 4 0
-7 4 0
-4 5 6 7 0
-9 8 0
-10 8 0
-11 8 0
-12 8 0
-13 8 0
-14 8 0
-8 9 10 11 12 13 14 0
